12747
10
130380
1510
 0 1 1 448 99  3 0 10 0
 0 1 1 1277 162  15 0 59 42 35 99 49 79 47 109 18 93 3 32 15 0
 0 1 1 1034 169  5 0 16 5 6 0
 0 1 1 1668 169  19 0 89 17 66 106 73 87 86 60 48 108 19 51 25 2 91 41 104 0
 0 1 1 2029 164  21 0 72 102 24 71 76 55 80 97 38 77 58 113 12 45 96 22 23 65 36 0
 0 1 1 865 142  12 0 13 70 56 31 11 81 33 61 103 69 0
 0 1 1 839 165  8 0 85 74 1 7 63 64 0
 0 1 1 1755 158  21 0 46 26 34 98 37 90 39 67 40 43 68 14 8 83 75 84 112 110 111 0
 0 1 1 1323 138  17 0 52 21 82 88 105 27 44 30 114 54 9 78 53 29 50 0
 0 1 1 1509 169  13 0 95 107 57 92 4 101 20 94 62 100 28 0
